(set-info :smt-lib-version 2.6)
(set-logic QF_S)
(set-info :source |
Generated by: Joel Day, Thorsten Ehlers, Mitja Kulczynski, Federico Mora, Florin Manea, Dirk Nowotka, Danny Poulsen, Zhengyang Lu
Application: Test WOORPJE
Target solver: WOORPJE
Publications: Day, J. D., Ehlers, T., Kulczynski, M., Manea, F., Nowotka, D., & Poulsen, D. B. (2019). On solving word equations using SAT. In RP 2019
Description: Consisting of a system of 100 small random word equations with at most 6 letters, 10 variables and length 60.
|)
(set-info :license "https://creativecommons.org/licenses/by/4.0/")
(set-info :category "random")
(set-info :status unknown)

(declare-fun H () String)
(declare-fun G () String)
(declare-fun E () String)
(declare-fun F () String)
(assert (= (str.++  "ec" H "afdffc")  (str.++  "ecfbce" E F "bcf" G "afdffc") ))
(assert (= (str.++  "caffabfeceffabacbba" "")  (str.++  "caffabfeceffa" G "acb" G "a") ))
(assert (= (str.++  "a" G "aff" E "acee" G "df" E "ffebe")  (str.++  "abaffdaceeb" E "f" E "ffebe") ))
(assert (= (str.++  "af" E "befaffcceccadefd")  (str.++  "afdbefaffccecca" E "ef" E) ))
(assert (= (str.++  "ccb" F G "cdbbfd" E "fede" E E)  (str.++  "ccbcfbcdb" G "fddfededd") ))
(assert (= (str.++  "e" G "bfeceebf" G "edcfccc" G)  (str.++  "ebbfeceebfbed" F "cccb") ))
(assert (= (str.++  G E "ff" G "ecefceaa" G "aecef")  (str.++  "bdffbecefceaabaecef" "") ))
(assert (= (str.++  "beaeb" G E "caedcfdea" E "fc")  (str.++  G "eae" G G E "caedcf" E "eadfc") ))
(assert (= (str.++  "daaafc" G "bee" G "d" G "de" F "aa")  (str.++  "daaafc" G G "eeb" E "bdecfaa") ))
(assert (= (str.++  "da" E "eadecaefecad" F "f" E)  (str.++  "da" E "eadecaefecadcff" E) ))
(assert (= (str.++  "efcc" E "adeaccaaba" E "cfe")  (str.++  "efcc" E "a" E "eaccaaba" E "cfe") ))
(assert (= (str.++  "eee" E "caacdeae" G "fef" G G "f")  (str.++  "eee" E "caacdeae" G "fef" G G "f") ))
(check-sat)

(exit)
